70
1 0 4
2 0 9
3 0 20
3 1 9
3 2 3
4 0 12
4 3 2
5 0 15
5 1 11
5 2 3
5 3 14
6 0 18
6 1 11
6 4 20
7 0 8
7 2 9
7 5 2
7 6 3
8 0 7
8 2 9
8 3 17
8 6 14
9 1 12
9 2 14
9 4 19
9 6 13
9 7 18
10 1 10
10 3 13
10 5 15
10 6 7
10 8 16
10 9 14
11 3 10
11 4 12
11 5 12
11 7 1
11 8 9
11 9 10
12 0 17
12 1 14
12 3 20
12 5 11
12 6 8
12 8 4
12 9 1
12 10 13
12 11 17
13 1 6
13 2 20
13 4 16
13 5 5
13 6 10
13 7 13
13 8 2
13 9 17
13 10 15
13 11 20
13 12 16
14 1 11
14 2 5
14 3 11
14 4 5
14 5 12
14 6 15
14 7 7
14 8 13
14 9 8
14 11 15
14 12 19
15 0 19
15 1 10
15 2 5
15 4 19
15 6 6
15 7 20
15 8 9
15 9 3
15 11 4
15 13 4
16 2 19
16 3 11
16 4 7
16 5 18
16 7 3
16 8 10
16 10 8
16 11 10
16 13 20
16 15 9
17 0 19
17 6 14
17 8 3
17 9 8
17 11 6
17 12 6
17 14 8
17 15 8
17 16 7
18 0 4
18 1 4
18 2 6
18 3 6
18 5 6
18 6 14
18 7 15
18 8 14
18 10 13
18 11 13
18 12 8
18 13 10
18 14 14
18 15 9
18 16 14
18 17 4
19 0 15
19 1 20
19 4 19
19 5 19
19 6 17
19 7 14
19 8 17
19 9 5
19 10 13
19 11 19
19 14 19
19 16 13
20 0 8
20 2 19
20 3 3
20 4 7
20 5 6
20 8 4
20 10 8
20 11 15
20 12 8
20 14 13
20 15 14
20 17 8
20 18 15
20 19 2
21 2 18
21 4 15
21 5 16
21 7 19
21 9 6
21 11 6
21 13 14
21 14 8
21 16 15
21 17 10
21 18 12
21 20 1
22 1 9
22 3 14
22 5 8
22 6 8
22 8 15
22 10 1
22 12 12
22 13 18
22 20 4
22 21 19
23 1 14
23 3 12
23 4 14
23 5 5
23 6 4
23 8 15
23 10 8
23 11 19
23 12 14
23 13 2
23 14 20
23 15 19
23 16 2
23 18 1
23 19 17
23 21 8
24 0 19
24 4 11
24 6 1
24 8 17
24 9 19
24 10 4
24 12 11
24 13 16
24 14 12
24 15 20
24 17 16
24 19 15
24 20 13
24 21 6
24 23 8
25 0 6
25 3 7
25 5 12
25 6 12
25 7 11
25 10 16
25 11 17
25 12 15
25 13 14
25 14 20
25 15 15
25 17 1
25 18 10
25 19 4
25 20 7
25 21 9
25 22 11
26 0 7
26 1 9
26 2 12
26 4 1
26 5 8
26 9 19
26 11 10
26 16 8
26 18 12
26 19 12
26 20 18
26 21 2
26 23 12
26 24 13
26 25 18
27 1 14
27 2 17
27 4 20
27 5 19
27 7 18
27 8 16
27 9 5
27 10 10
27 13 19
27 14 7
27 16 11
27 17 11
27 18 3
27 20 2
27 25 1
27 26 17
28 1 17
28 2 20
28 7 10
28 10 3
28 11 20
28 12 11
28 13 8
28 14 20
28 15 12
28 16 3
28 19 8
28 20 14
28 21 10
28 22 5
28 26 19
28 27 17
29 0 17
29 3 18
29 4 12
29 5 12
29 6 12
29 7 19
29 9 13
29 10 1
29 12 12
29 13 1
29 15 15
29 17 3
29 19 8
29 21 12
29 22 19
29 23 13
29 24 17
29 25 16
29 26 5
29 28 12
30 0 4
30 1 4
30 5 11
30 8 2
30 9 11
30 11 13
30 12 17
30 14 18
30 15 2
30 16 4
30 17 16
30 18 20
30 20 11
30 21 20
30 23 19
30 24 13
30 25 13
30 26 13
30 29 18
31 3 12
31 4 10
31 5 14
31 6 15
31 7 4
31 8 18
31 9 16
31 10 2
31 11 16
31 12 6
31 13 18
31 14 8
31 17 3
31 18 2
31 19 1
31 21 20
31 25 20
31 27 10
32 0 10
32 1 11
32 2 19
32 3 5
32 6 2
32 7 6
32 9 16
32 11 18
32 12 19
32 13 10
32 15 1
32 16 10
32 17 5
32 18 1
32 19 5
32 20 17
32 22 15
32 24 13
32 25 3
32 26 17
32 27 20
32 29 19
32 30 9
33 2 17
33 3 17
33 5 4
33 6 18
33 9 5
33 11 19
33 13 8
33 14 18
33 15 9
33 16 4
33 17 10
33 19 13
33 21 17
33 22 8
33 23 4
33 24 12
33 27 2
33 30 19
34 1 5
34 2 18
34 3 8
34 5 3
34 9 11
34 12 13
34 13 3
34 14 7
34 15 16
34 16 1
34 17 16
34 22 11
34 23 14
34 24 19
34 25 8
34 27 11
34 28 14
34 29 9
34 32 3
35 0 12
35 2 15
35 4 12
35 5 16
35 6 9
35 7 18
35 8 7
35 10 20
35 11 5
35 12 10
35 14 8
35 15 8
35 16 12
35 17 4
35 18 4
35 19 14
35 21 8
35 23 1
35 27 5
35 28 11
35 29 1
35 30 11
35 31 15
35 33 2
35 34 1
36 0 3
36 1 10
36 2 20
36 3 18
36 5 8
36 6 3
36 7 8
36 8 4
36 12 9
36 13 6
36 16 15
36 18 18
36 19 20
36 20 11
36 23 9
36 26 18
36 27 16
36 28 4
36 29 3
36 31 1
36 32 12
36 33 10
36 34 2
37 0 18
37 1 8
37 3 1
37 4 10
37 5 3
37 6 19
37 7 16
37 8 5
37 12 20
37 13 18
37 16 18
37 20 10
37 21 17
37 22 3
37 25 14
37 27 13
37 30 1
37 32 18
37 33 2
37 35 1
37 36 1
38 1 2
38 2 4
38 4 14
38 6 7
38 7 5
38 8 13
38 9 16
38 10 10
38 11 12
38 12 14
38 14 10
38 15 20
38 16 11
38 19 15
38 20 18
38 22 1
38 23 5
38 25 13
38 26 19
38 27 9
38 28 5
38 29 14
38 30 17
38 34 19
38 35 17
38 36 19
38 37 2
39 1 12
39 3 10
39 4 19
39 5 8
39 6 1
39 7 17
39 11 14
39 12 19
39 13 10
39 19 19
39 22 18
39 23 7
39 24 7
39 25 18
39 26 19
39 27 13
39 29 12
39 30 8
39 32 16
39 36 3
39 37 14
39 38 17
40 0 7
40 1 1
40 2 17
40 3 3
40 4 19
40 6 13
40 7 6
40 9 6
40 11 7
40 13 1
40 14 16
40 16 9
40 17 2
40 18 17
40 19 10
40 25 5
40 26 15
40 28 15
40 30 1
40 31 17
40 32 16
40 33 18
40 34 16
40 36 6
40 37 17
40 38 13
41 0 20
41 1 4
41 2 17
41 3 9
41 4 18
41 5 11
41 6 4
41 8 18
41 10 17
41 11 5
41 13 16
41 14 8
41 16 15
41 17 8
41 19 4
41 25 11
41 27 13
41 29 13
41 30 18
41 31 8
41 32 6
41 34 17
41 35 20
41 36 3
41 37 7
41 38 13
41 39 18
41 40 11
42 2 12
42 3 4
42 4 8
42 6 1
42 7 1
42 8 15
42 10 15
42 13 15
42 14 13
42 16 13
42 17 11
42 18 19
42 19 20
42 20 10
42 21 17
42 23 19
42 24 10
42 26 6
42 27 3
42 29 19
42 30 5
42 32 10
42 33 4
42 34 9
42 35 18
42 36 5
42 38 17
42 40 20
42 41 13
43 0 16
43 3 19
43 4 17
43 6 7
43 8 18
43 9 14
43 11 17
43 12 2
43 13 3
43 14 17
43 16 17
43 17 4
43 18 11
43 21 20
43 23 19
43 25 7
43 26 13
43 27 20
43 29 3
43 30 9
43 31 12
43 32 4
43 33 15
43 34 20
43 35 8
43 36 14
43 38 15
43 39 17
43 40 10
43 41 15
44 0 20
44 1 11
44 2 8
44 3 1
44 4 20
44 6 7
44 8 11
44 13 16
44 14 2
44 16 13
44 17 3
44 18 8
44 20 20
44 21 2
44 22 19
44 23 2
44 25 13
44 26 2
44 27 1
44 29 10
44 30 12
44 35 17
44 36 2
44 37 2
44 38 19
44 39 5
44 41 2
44 43 16
45 3 18
45 4 5
45 6 2
45 7 8
45 8 1
45 9 3
45 10 8
45 11 11
45 12 2
45 16 18
45 17 9
45 18 10
45 20 6
45 22 8
45 24 15
45 26 7
45 27 20
45 28 6
45 30 19
45 35 16
45 37 20
45 38 5
45 42 19
46 0 13
46 1 7
46 2 11
46 3 18
46 5 1
46 6 19
46 8 10
46 9 15
46 10 16
46 11 1
46 13 14
46 14 8
46 16 10
46 19 14
46 22 15
46 23 3
46 24 6
46 25 18
46 26 1
46 29 4
46 30 1
46 33 18
46 34 3
46 37 17
46 38 8
46 40 19
46 41 11
46 42 7
46 44 10
46 45 17
47 2 19
47 4 13
47 5 9
47 7 9
47 9 7
47 11 19
47 12 10
47 13 3
47 14 16
47 16 14
47 19 6
47 21 18
47 23 1
47 26 6
47 27 10
47 28 13
47 30 2
47 34 14
47 36 3
47 37 16
47 38 11
47 39 3
47 40 4
47 41 19
47 42 10
47 43 20
47 44 15
47 46 7
48 5 6
48 6 15
48 7 5
48 8 6
48 9 1
48 10 3
48 11 18
48 12 19
48 13 15
48 14 17
48 15 8
48 16 3
48 20 14
48 25 7
48 28 18
48 29 5
48 30 16
48 32 16
48 35 11
48 37 2
48 39 12
48 41 12
48 42 4
48 45 4
48 47 5
49 0 1
49 2 3
49 3 13
49 4 17
49 5 11
49 6 6
49 7 6
49 8 17
49 9 4
49 12 16
49 13 14
49 15 3
49 17 20
49 18 1
49 19 16
49 20 4
49 21 16
49 23 12
49 24 14
49 28 3
49 29 2
49 30 1
49 31 4
49 35 7
49 36 18
49 39 20
49 40 19
49 41 7
49 42 8
49 43 15
49 44 17
49 45 19
49 46 13
49 47 2
49 48 12
50 1 18
50 2 5
50 3 11
50 5 17
50 6 1
50 7 16
50 10 10
50 11 7
50 12 3
50 13 20
50 15 10
50 16 19
50 17 6
50 18 6
50 19 3
50 21 5
50 22 10
50 23 6
50 24 9
50 29 11
50 31 4
50 33 6
50 36 8
50 40 13
50 41 18
50 43 16
50 45 5
50 46 18
50 48 13
50 49 6
51 0 5
51 1 3
51 2 12
51 3 11
51 6 10
51 8 19
51 9 20
51 11 20
51 12 16
51 13 1
51 14 8
51 15 10
51 22 17
51 24 15
51 26 6
51 27 9
51 31 14
51 32 15
51 33 14
51 34 17
51 35 2
51 37 7
51 38 19
51 39 16
51 42 18
51 43 19
51 44 2
51 46 18
51 47 2
51 49 10
52 3 12
52 4 16
52 9 10
52 11 16
52 13 12
52 15 5
52 16 16
52 17 6
52 18 2
52 21 6
52 24 20
52 25 15
52 26 5
52 27 13
52 28 15
52 29 8
52 31 6
52 32 4
52 33 1
52 35 13
52 36 16
52 37 3
52 40 1
52 43 9
52 45 11
52 46 1
52 47 14
52 48 17
52 49 6
52 50 14
52 51 7
53 0 17
53 1 4
53 3 2
53 5 14
53 6 11
53 8 5
53 9 7
53 10 20
53 11 12
53 12 2
53 13 15
53 15 17
53 16 9
53 18 2
53 25 2
53 27 16
53 29 9
53 31 12
53 32 19
53 33 1
53 35 20
53 36 6
53 42 9
53 46 6
53 48 11
53 49 1
53 50 20
53 51 4
54 1 18
54 4 5
54 5 18
54 7 11
54 8 5
54 9 2
54 10 14
54 11 6
54 12 2
54 13 8
54 14 12
54 15 6
54 16 9
54 17 16
54 18 5
54 22 19
54 23 11
54 24 12
54 26 18
54 28 4
54 29 12
54 30 4
54 31 6
54 34 3
54 35 18
54 36 13
54 38 15
54 39 2
54 41 8
54 46 6
54 48 3
54 50 14
54 51 19
54 52 1
54 53 18
55 1 4
55 3 12
55 6 15
55 9 20
55 10 1
55 12 3
55 13 12
55 14 12
55 15 4
55 16 17
55 18 2
55 19 5
55 20 12
55 22 10
55 25 16
55 26 14
55 27 9
55 28 5
55 31 14
55 33 15
55 34 9
55 36 16
55 37 18
55 40 13
55 44 2
55 45 5
55 46 1
55 48 12
55 49 11
55 50 16
55 51 12
55 53 5
55 54 5
56 2 4
56 5 5
56 6 9
56 7 11
56 9 4
56 10 5
56 12 9
56 15 17
56 16 2
56 17 17
56 18 16
56 19 11
56 20 7
56 21 16
56 22 17
56 23 11
56 24 7
56 25 16
56 27 7
56 28 7
56 29 5
56 30 10
56 31 5
56 34 7
56 35 1
56 37 8
56 39 14
56 40 3
56 42 17
56 43 10
56 48 20
56 51 3
56 52 3
56 54 3
56 55 4
57 0 5
57 2 15
57 3 15
57 4 12
57 5 20
57 7 5
57 8 7
57 9 3
57 11 4
57 14 10
57 18 19
57 19 8
57 20 18
57 21 5
57 24 1
57 25 16
57 26 4
57 27 12
57 28 1
57 30 10
57 31 3
57 32 14
57 34 1
57 35 2
57 37 20
57 39 11
57 41 14
57 43 2
57 45 10
57 46 17
57 50 14
57 51 16
57 52 12
57 54 8
57 55 15
57 56 17
58 0 8
58 1 15
58 2 14
58 4 15
58 6 8
58 7 4
58 8 2
58 9 1
58 10 13
58 11 19
58 13 18
58 18 16
58 19 13
58 20 19
58 25 15
58 27 16
58 28 3
58 31 2
58 32 1
58 33 6
58 35 13
58 36 17
58 37 18
58 39 1
58 41 7
58 43 12
58 44 3
58 47 1
58 49 15
58 50 11
58 51 2
58 52 5
58 54 10
59 0 2
59 1 1
59 4 8
59 5 2
59 6 3
59 7 4
59 9 2
59 13 11
59 14 5
59 16 20
59 17 2
59 19 16
59 20 11
59 21 11
59 22 8
59 24 18
59 26 17
59 27 10
59 28 1
59 29 2
59 30 8
59 31 6
59 34 4
59 35 6
59 36 1
59 37 18
59 38 10
59 39 7
59 41 10
59 43 3
59 44 6
59 45 20
59 46 12
59 48 4
59 49 18
59 51 15
59 52 17
59 54 13
59 58 11
60 0 4
60 1 3
60 3 12
60 5 17
60 7 18
60 8 2
60 11 11
60 12 10
60 14 15
60 15 16
60 17 9
60 18 1
60 22 16
60 25 18
60 26 8
60 27 14
60 28 18
60 30 15
60 32 10
60 33 7
60 34 2
60 39 19
60 40 9
60 43 11
60 44 7
60 45 6
60 47 18
60 54 8
60 55 16
60 59 6
61 1 9
61 2 15
61 3 17
61 4 16
61 6 20
61 7 11
61 10 12
61 12 11
61 13 20
61 15 13
61 16 6
61 17 3
61 18 12
61 19 13
61 22 1
61 25 17
61 26 9
61 27 1
61 29 6
61 31 8
61 32 6
61 33 5
61 36 9
61 39 2
61 40 12
61 41 4
61 43 9
61 44 6
61 45 20
61 47 14
61 51 17
61 53 5
61 54 6
61 55 2
61 57 1
61 60 10
62 6 5
62 8 1
62 9 11
62 10 1
62 11 6
62 12 14
62 13 7
62 19 20
62 20 20
62 21 17
62 22 5
62 23 4
62 24 2
62 25 15
62 29 17
62 30 17
62 31 17
62 32 9
62 33 9
62 34 14
62 36 19
62 37 9
62 38 10
62 39 10
62 40 3
62 41 14
62 44 11
62 45 2
62 46 14
62 47 5
62 48 18
62 49 13
62 51 16
62 52 17
62 53 13
62 55 13
62 59 14
62 60 12
62 61 14
63 0 3
63 1 8
63 2 16
63 5 13
63 6 12
63 8 9
63 12 16
63 15 18
63 18 8
63 19 16
63 20 12
63 21 15
63 22 16
63 23 18
63 24 9
63 25 7
63 26 5
63 27 20
63 28 1
63 29 8
63 31 14
63 32 13
63 33 16
63 35 11
63 37 12
63 38 16
63 39 3
63 40 8
63 42 15
63 43 9
63 44 19
63 46 3
63 51 18
63 54 5
63 56 6
63 57 9
63 58 18
63 59 6
63 60 14
63 61 8
63 62 15
64 0 2
64 3 10
64 4 11
64 6 13
64 7 11
64 8 10
64 9 19
64 10 8
64 11 9
64 12 15
64 13 12
64 15 10
64 17 6
64 18 2
64 19 12
64 20 17
64 23 2
64 24 6
64 28 16
64 30 13
64 33 17
64 34 4
64 35 4
64 36 10
64 37 14
64 38 4
64 39 6
64 42 6
64 43 9
64 44 14
64 46 11
64 47 18
64 49 9
64 51 1
64 54 3
64 55 18
64 56 9
64 57 10
64 58 15
64 59 11
64 61 18
64 62 19
64 63 7
65 0 8
65 1 5
65 2 16
65 5 6
65 8 6
65 9 5
65 10 4
65 12 8
65 14 9
65 17 15
65 18 1
65 19 16
65 20 6
65 21 12
65 22 10
65 24 11
65 29 3
65 30 13
65 32 5
65 33 15
65 34 9
65 35 7
65 37 11
65 41 20
65 42 4
65 43 14
65 44 19
65 45 1
65 46 20
65 50 19
65 51 14
65 52 11
65 54 4
65 57 8
65 61 15
65 62 8
65 64 16
66 0 20
66 1 2
66 2 17
66 3 4
66 4 16
66 6 18
66 7 7
66 9 8
66 10 17
66 11 6
66 13 1
66 15 1
66 16 8
66 18 12
66 20 15
66 21 5
66 23 6
66 24 13
66 26 3
66 27 9
66 28 20
66 30 1
66 31 12
66 32 13
66 33 14
66 34 3
66 35 3
66 36 8
66 37 15
66 38 14
66 39 1
66 40 12
66 41 20
66 45 7
66 47 13
66 49 6
66 50 17
66 53 15
66 54 8
66 56 15
66 58 16
66 60 5
66 61 5
66 63 7
66 65 5
67 0 14
67 1 20
67 3 11
67 5 5
67 6 14
67 7 10
67 8 10
67 9 16
67 10 1
67 14 17
67 15 2
67 17 19
67 18 4
67 19 8
67 21 1
67 22 12
67 24 9
67 26 10
67 27 1
67 29 6
67 30 9
67 31 10
67 32 2
67 34 15
67 35 7
67 37 17
67 39 19
67 40 2
67 43 10
67 44 18
67 48 4
67 49 10
67 50 13
67 51 18
67 52 1
67 53 8
67 56 6
67 58 11
67 60 12
67 61 12
67 62 8
67 63 7
67 64 8
67 66 10
68 0 6
68 1 19
68 2 8
68 4 6
68 5 1
68 7 17
68 8 5
68 9 3
68 10 15
68 11 8
68 12 11
68 14 13
68 17 5
68 18 11
68 19 11
68 21 14
68 22 20
68 23 18
68 24 3
68 25 3
68 27 13
68 29 4
68 31 8
68 32 12
68 33 12
68 34 20
68 36 11
68 38 20
68 39 14
68 40 9
68 42 11
68 43 7
68 44 5
68 49 2
68 52 6
68 53 11
68 55 7
68 57 18
68 58 9
68 60 17
68 62 12
68 67 3
69 1 2
69 2 15
69 8 11
69 9 8
69 11 4
69 14 10
69 15 20
69 16 19
69 17 2
69 20 2
69 22 2
69 24 4
69 25 8
69 27 7
69 28 6
69 30 9
69 31 12
69 33 20
69 36 17
69 38 1
69 39 3
69 40 8
69 42 17
69 43 4
69 44 19
69 47 16
69 48 9
69 49 1
69 51 2
69 52 18
69 53 20
69 55 16
69 57 15
69 58 4
69 60 8
69 61 10
69 62 19
69 63 2
69 65 8
69 67 7
